2 30
282 307 
0 25 34 44 52 11 60 1
1 52 58 99 93 83 85 1
2 87 88 64 59 37 20 2
3 100 97 51 44 66 49 2
4 56 62 23 13 31 3 1
5 65 64 12 18 13 3 2
6 8 7 37 34 95 13 2
7 36 38 74 76 89 97 2
8 43 47 20 14 69 43 2
9 11 12 67 59 57 34 2
10 1 2 37 40 30 5 1
11 4 5 18 16 100 72 1
12 17 14 66 57 30 33 2
13 64 74 6 13 96 34 1
14 99 99 37 33 66 67 2
15 71 63 87 85 30 50 2
16 76 67 61 54 97 15 2
17 34 34 26 29 68 15 1
18 81 71 89 94 52 17 1
19 14 24 103 99 49 19 2
20 80 75 72 82 18 15 1
21 33 30 90 96 88 86 1
22 50 42 100 93 72 58 1
23 92 93 85 75 35 39 2
24 80 87 1 5 9 72 1
25 19 18 32 33 51 67 2
26 23 24 59 59 30 89 2
27 10 10 49 40 28 1 1
28 3 4 18 26 75 94 2
29 64 69 49 48 86 63 1
